\ LP format - for model browsing. Use MPS format to capture full model detail.
Minimize
  x[0] + x[1] + x[2] + x[3] + x[4] + x[5] + x[6] + x[7] + x[8] + x[9]
   + x[10] + x[11] + x[12] + x[13] + x[14] + x[15] + x[16] + x[17] + x[18]
   + x[19] + 0 z[0] + 0 z[1] + 0 z[2] + 0 z[3] + 0 z[4] + 0 z[5] + 0 z[6]
   + 0 z[7] + 0 z[8] + 0 z[9] + 0 z[10] + 0 z[11] + 0 z[12] + 0 z[13]
   + 0 z[14] + 0 z[15] + 0 z[16] + 0 z[17] + 0 z[18] + 0 z[19] + 0 z[20]
   + 0 z[21] + 0 z[22] + 0 z[23] + 0 z[24] + 0 z[25] + 0 z[26] + 0 z[27]
   + 0 z[28] + 0 z[29] + 0 z[30] + 0 z[31] + 0 z[32] + 0 z[33] + 0 z[34]
   + 0 z[35] + 0 z[36] + 0 z[37] + 0 z[38] + 0 z[39] + 0 z[40] + 0 z[41]
   + 0 z[42] + 0 z[43] + 0 z[44] + 0 z[45] + 0 z[46] + 0 z[47] + 0 z[48]
   + 0 z[49] + 0 z[50] + 0 z[51] + 0 z[52] + 0 z[53] + 0 z[54] + 0 z[55]
   + 0 z[56] + 0 z[57] + 0 z[58] + 0 z[59] + 0 z[60] + 0 z[61] + 0 z[62]
   + 0 z[63] + 0 z[64] + 0 z[65] + 0 z[66] + 0 z[67] + 0 z[68] + 0 z[69]
   + 0 z[70] + 0 z[71] + 0 z[72] + 0 z[73] + 0 z[74] + 0 z[75] + 0 z[76]
   + 0 z[77] + 0 z[78] + 0 z[79] + 0 z[80] + 0 z[81] + 0 z[82] + 0 z[83]
   + 0 z[84] + 0 z[85] + 0 z[86] + 0 z[87] + 0 z[88] + 0 z[89] + 0 z[90]
   + 0 z[91] + 0 z[92] + 0 z[93] + 0 z[94] + 0 z[95] + 0 z[96] + 0 z[97]
   + 0 z[98] + 0 z[99] + 0 z[100] + 0 z[101] + 0 z[102] + 0 z[103]
   + 0 z[104] + 0 z[105] + 0 z[106] + 0 z[107] + 0 z[108] + 0 z[109]
   + 0 z[110] + 0 z[111] + 0 z[112] + 0 z[113] + 0 z[114] + 0 z[115]
   + 0 z[116] + 0 z[117] + 0 z[118] + 0 z[119] + 0 z[120] + 0 z[121]
   + 0 z[122] + 0 z[123] + 0 z[124] + 0 z[125] + 0 z[126] + 0 z[127]
   + 0 z[128] + 0 z[129] + 0 z[130] + 0 z[131] + 0 z[132] + 0 z[133]
   + 0 z[134] + 0 z[135] + 0 z[136] + 0 z[137] + 0 z[138] + 0 z[139]
   + 0 z[140] + 0 z[141] + 0 z[142] + 0 z[143] + 0 z[144] + 0 z[145]
   + 0 z[146] + 0 z[147] + 0 z[148] + 0 z[149] + 0 z[150] + 0 z[151]
   + 0 z[152] + 0 z[153] + 0 z[154] + 0 z[155] + 0 z[156] + 0 z[157]
   + 0 z[158] + 0 z[159] + 0 z[160] + 0 z[161] + 0 z[162] + 0 z[163]
   + 0 z[164] + 0 z[165] + 0 z[166] + 0 z[167] + 0 z[168] + 0 z[169]
   + 0 z[170] + 0 z[171] + 0 z[172] + 0 z[173] + 0 z[174] + 0 z[175]
   + 0 z[176] + 0 z[177] + 0 z[178] + 0 z[179] + 0 z[180] + 0 z[181]
   + 0 z[182] + 0 z[183] + 0 z[184] + 0 z[185] + 0 z[186] + 0 z[187]
   + 0 z[188] + 0 z[189] + 0 z[190] + 0 z[191] + 0 z[192] + 0 z[193]
   + 0 z[194] + 0 z[195] + 0 z[196] + 0 z[197] + 0 z[198] + 0 z[199]
Subject To
 R0: x[0] + x[1] + x[2] + x[3] + x[4] + x[5] + x[6] + x[7] + x[8] + x[9]
   + x[10] + x[11] + x[12] + x[13] + x[14] + x[15] + x[16] + x[17] + x[18]
   + x[19] = 1
Bounds
Binaries
 z[0] z[1] z[2] z[3] z[4] z[5] z[6] z[7] z[8] z[9] z[10] z[11] z[12] z[13]
 z[14] z[15] z[16] z[17] z[18] z[19] z[20] z[21] z[22] z[23] z[24] z[25]
 z[26] z[27] z[28] z[29] z[30] z[31] z[32] z[33] z[34] z[35] z[36] z[37]
 z[38] z[39] z[40] z[41] z[42] z[43] z[44] z[45] z[46] z[47] z[48] z[49]
 z[50] z[51] z[52] z[53] z[54] z[55] z[56] z[57] z[58] z[59] z[60] z[61]
 z[62] z[63] z[64] z[65] z[66] z[67] z[68] z[69] z[70] z[71] z[72] z[73]
 z[74] z[75] z[76] z[77] z[78] z[79] z[80] z[81] z[82] z[83] z[84] z[85]
 z[86] z[87] z[88] z[89] z[90] z[91] z[92] z[93] z[94] z[95] z[96] z[97]
 z[98] z[99] z[100] z[101] z[102] z[103] z[104] z[105] z[106] z[107] z[108]
 z[109] z[110] z[111] z[112] z[113] z[114] z[115] z[116] z[117] z[118]
 z[119] z[120] z[121] z[122] z[123] z[124] z[125] z[126] z[127] z[128]
 z[129] z[130] z[131] z[132] z[133] z[134] z[135] z[136] z[137] z[138]
 z[139] z[140] z[141] z[142] z[143] z[144] z[145] z[146] z[147] z[148]
 z[149] z[150] z[151] z[152] z[153] z[154] z[155] z[156] z[157] z[158]
 z[159] z[160] z[161] z[162] z[163] z[164] z[165] z[166] z[167] z[168]
 z[169] z[170] z[171] z[172] z[173] z[174] z[175] z[176] z[177] z[178]
 z[179] z[180] z[181] z[182] z[183] z[184] z[185] z[186] z[187] z[188]
 z[189] z[190] z[191] z[192] z[193] z[194] z[195] z[196] z[197] z[198]
 z[199]
End
